\* ODT *\
Minimize
OBJ: X0 + X1 + X10 + X11 + X12 + X13 + X14 + X15 + X16 + X17 + X18 + X19 + X2
 + X3 + X4 + X5 + X6 + X7 + X8 + X9
Subject To
Cover_0: X1 + X11 + X14 + X16 + X2 + X4 + X5 >= 1
Cover_1: X11 + X14 + X16 + X2 + X5 >= 1
Cover_2: X12 + X17 >= 1
Cover_3: X1 + X11 + X14 + X16 + X2 + X4 + X5 >= 1
Cover_4: X11 + X14 + X16 + X2 + X5 >= 1
Cover_5: X12 + X17 >= 1
Binaries
X0
X1
X10
X11
X12
X13
X14
X15
X16
X17
X18
X19
X2
X3
X4
X5
X6
X7
X8
X9
End
